n_res = 4;
rcap = [14, 15, 57, 59];
rtype = [1, 1, 2, 2];
n_tasks = 16;
modes = [ {1, 2, 3, 4, 5}, {6, 7, 8, 9, 10}, {11, 12, 13, 14, 15}, {16, 17, 18, 19, 20}, {21, 22, 23, 24, 25}, {26, 27, 28, 29, 30}, {31, 32, 33, 34, 35}, {36, 37, 38, 39, 40}, {41, 42, 43, 44, 45}, {46, 47, 48, 49, 50}, {51, 52, 53, 54, 55}, {56, 57, 58, 59, 60}, {61, 62, 63, 64, 65}, {66, 67, 68, 69, 70}, {71, 72, 73, 74, 75}, {76, 77, 78, 79, 80} ];
succ = [ {7, 9, 11}, {5, 9, 13}, {4, 6, 7}, {9, 10, 12}, {6, 7}, {8, 14}, {14, 15}, {15}, {16}, {13, 16}, {12, 14}, {13, 16}, {15}, {}, {}, {} ];
n_opt = 80;
dur = [2, 2, 2, 5, 8, 1, 1, 3, 5, 9, 2, 2, 2, 6, 9, 3, 3, 5, 5, 9, 1, 5, 9, 10, 10, 1, 3, 8, 9, 9, 3, 7, 8, 8, 10, 2, 3, 4, 6, 6, 1, 4, 6, 7, 8, 1, 4, 5, 9, 10, 3, 3, 4, 6, 7, 1, 2, 2, 3, 6, 3, 7, 8, 9, 10, 4, 7, 7, 9, 9, 2, 3, 3, 6, 6, 1, 4, 6, 9, 10];
rreq = [|  9,  9,  9,  9,  9, 10, 10,  9,  9,  9,  8,  8,  8,  8,  7,  9,  9,  9,  9,  9,  3,  3,  2,  1,  2,  5,  5,  5,  5,  5,  4,  4,  3,  3,  2, 10,  9,  9,  8,  9,  7,  5,  4,  2,  1,  9,  6,  6,  4,  2,  7,  7,  7,  6,  6,  8,  7,  7,  5,  4,  9,  9,  8,  8,  8,  6,  6,  6,  6,  6,  8,  5,  7,  5,  4,  6,  6,  6,  5,  5
        |  5,  6,  6,  5,  1,  9, 10,  8,  6,  3,  7,  7,  6,  6,  5,  8,  7,  7,  7,  7, 10, 10,  9,  9,  9, 10,  9,  8,  8,  7,  6,  6,  6,  6,  6,  9,  5,  3,  2,  2,  6,  5,  3,  2,  2,  6,  6,  5,  4,  3,  7,  8,  7,  5,  3,  9,  7,  8,  7,  4,  9,  7,  7,  6,  6,  8,  8,  8,  7,  7, 10,  7,  6,  6,  5,  9,  8,  8,  6,  4
        |  0, 10,  0,  0,  0,  0, 10, 10,  0,  0,  0,  9,  0,  9,  0,  9,  0,  6,  0,  0,  3,  0,  3,  0,  2,  7,  0,  7,  5,  0,  0,  4,  0,  3,  2,  0,  0,  0,  5,  0,  0,  6,  0,  6,  6,  8,  0,  7,  3,  0,  4,  0,  0,  3,  0,  7,  3,  0,  0,  0,  0,  5,  5,  0,  0,  0,  0, 10,  0,  7,  7,  0,  0,  0,  7,  0,  9,  7,  0,  4
        |  7,  0,  6,  6,  5,  8,  0,  0,  8,  5,  3,  0,  4,  0,  3,  0,  7,  0,  5,  4,  0,  8,  0,  7,  0,  0,  8,  0,  0,  8,  7,  0,  6,  0,  0, 10, 10, 10,  0,  9,  7,  0,  2,  0,  0,  0, 10,  0,  0,  5,  0, 10,  8,  0,  7,  0,  0,  7,  7,  6,  5,  0,  0,  4,  3,  6,  3,  0,  4,  0,  0,  9,  9,  9,  0,  4,  0,  0,  3,  0 |];
